; benchmark generated from python API
(set-info :status unknown)
(declare-fun strlen_85_64 () (_ BitVec 64))
(declare-fun args_1_8 () (_ BitVec 8))
(declare-fun strlen_83_64 () (_ BitVec 64))
(declare-fun strncmp_ret_84_32 () (_ BitVec 32))
(declare-fun strncmp_ret_86_32 () (_ BitVec 32))
(declare-fun filesize_file_0_/proc/self/loginuid_88_64 () (_ BitVec 64))
(declare-fun syscall_stub_ioctl_94_32 () (_ BitVec 32))
(declare-fun syscall_stub_newfstatat_119_64 () (_ BitVec 64))
(declare-fun syscall_stub_readlink_158_64 () (_ BitVec 64))
(declare-fun strlen_981_64 () (_ BitVec 64))
(declare-fun mem_7fffffffffef42d_194_3576 () (_ BitVec 3576))
(declare-fun mem_7fffffffffef42c_177_8 () (_ BitVec 8))
(declare-fun mem_7fffffffffef428_172_32 () (_ BitVec 32))
(declare-fun mem_7fffffffffef420_168_64 () (_ BitVec 64))
(declare-fun syscall_stub_newfstatat_218_64 () (_ BitVec 64))
(declare-fun mem_7fffffffffef038_289_64 () (_ BitVec 64))
(declare-fun mem_7fffffffffeefa8_295_64 () (_ BitVec 64))
(declare-fun mem_7fffffffffeefa0_343_64 () (_ BitVec 64))
(declare-fun mem_7fffffffffef030_340_64 () (_ BitVec 64))
(declare-fun mem_7fffffffffef048_388_32 () (_ BitVec 32))
(declare-fun mem_7fffffffffeefc8_425_64 () (_ BitVec 64))
(declare-fun mem_7fffffffffef058_415_64 () (_ BitVec 64))
(declare-fun access_2273_32 () (_ BitVec 32))
(declare-fun access_3254_32 () (_ BitVec 32))
(declare-fun strlen_5285_64 () (_ BitVec 64))
(declare-fun mem_2c_5284_264 () (_ BitVec 264))
(assert
 (let ((?x751 (bvadd (_ bv576460752303357826 64) strlen_85_64)))
 (let (($x69 (= (_ bv0 8) args_1_8)))
 (let ((?x46 (ite $x69 (_ bv576460752303357826 64) (_ bv576460752303357827 64))))
 (= ?x46 ?x751)))))
(assert
 (let ((?x101 (bvadd (_ bv576460752303357826 64) strlen_83_64)))
 (let (($x69 (= (_ bv0 8) args_1_8)))
 (let ((?x46 (ite $x69 (_ bv576460752303357826 64) (_ bv576460752303357827 64))))
 (= ?x46 ?x101)))))
(assert
 (let (($x104 (bvule (_ bv2 64) strlen_83_64)))
 (let (($x48 (= (_ bv2 64) strlen_83_64)))
 (let (($x122 (or $x48 $x104)))
 (let (($x123 (not $x122)))
 (let (($x57 (= (_ bv45 8) args_1_8)))
 (let (($x121 (not $x57)))
 (or $x121 $x123))))))))
(assert
 (= (_ bv1 32) strncmp_ret_84_32))
(assert
 (= (_ bv1 32) strncmp_ret_86_32))
(assert
 true)
(assert
 (let ((?x1236 ((_ extract 3 0) filesize_file_0_/proc/self/loginuid_88_64)))
 (let (($x1210 (bvsge (_ bv0 64) filesize_file_0_/proc/self/loginuid_88_64)))
 (let ((?x99 (ite $x1210 (_ bv0 4) ?x1236)))
 (let (($x1110 (bvule ?x99 (_ bv12 4))))
 (let (($x119703 (not $x1110)))
 (let ((?x1214 ((_ extract 63 63) filesize_file_0_/proc/self/loginuid_88_64)))
 (let (($x116245 (= (_ bv1 1) ?x1214)))
 (let (($x119835 (not $x116245)))
 (let ((?x1229 ((_ extract 63 4) filesize_file_0_/proc/self/loginuid_88_64)))
 (let (($x523 (= (_ bv0 60) ?x1229)))
 (let (($x516 (or $x1210 $x523)))
 (let (($x119942 (not $x516)))
 (let (($x119586 (or $x119942 $x119835 $x1210 $x119703)))
 (let (($x116912 (not $x119586)))
 (let (($x116860 (= (_ bv0 64) filesize_file_0_/proc/self/loginuid_88_64)))
 (let (($x117248 (or $x116860 $x1210)))
 (let (($x119482 (not $x117248)))
 (let (($x47155 (or $x119942 $x119703 $x119482)))
 (let (($x118344 (not $x47155)))
 (or $x118344 $x116912)))))))))))))))))))))
(assert
 (let (($x1210 (bvsge (_ bv0 64) filesize_file_0_/proc/self/loginuid_88_64)))
 (let ((?x1217 (ite $x1210 (_ bv0 64) filesize_file_0_/proc/self/loginuid_88_64)))
 (let ((?x1236 ((_ extract 3 0) filesize_file_0_/proc/self/loginuid_88_64)))
 (let ((?x99 (ite $x1210 (_ bv0 4) ?x1236)))
 (let (($x1110 (bvule ?x99 (_ bv12 4))))
 (let ((?x1229 ((_ extract 63 4) filesize_file_0_/proc/self/loginuid_88_64)))
 (let (($x523 (= (_ bv0 60) ?x1229)))
 (let (($x516 (or $x1210 $x523)))
 (let (($x975 (and $x516 $x1110)))
 (let ((?x1169 (ite $x975 ?x1217 (_ bv12 64))))
 (bvule ?x1169 (_ bv18446744073709547520 64)))))))))))))
(assert
 (let ((?x48102 ((_ extract 31 31) syscall_stub_ioctl_94_32)))
 (= (_ bv0 1) ?x48102)))
(assert
 (let (($x3051 (= (_ bv0 32) syscall_stub_ioctl_94_32)))
 (not $x3051)))
(assert
 (let ((?x52872 ((_ extract 31 0) syscall_stub_newfstatat_119_64)))
 (bvule ?x52872 (_ bv4294963200 32))))
(assert
 (= (_ bv17870283321406196703 64) syscall_stub_readlink_158_64))
(assert
 (let ((?x115683 (bvadd (_ bv576460752303354917 64) strlen_981_64)))
 (let ((?x443043 ((_ extract 3167 3160) mem_7fffffffffef42d_194_3576)))
 (let (($x439720 (= (_ bv0 8) ?x443043)))
 (let ((?x440031 (ite $x439720 (_ bv576460752303354976 64) (_ bv0 64))))
 (let ((?x440933 ((_ extract 3175 3168) mem_7fffffffffef42d_194_3576)))
 (let (($x442384 (= (_ bv0 8) ?x440933)))
 (let ((?x440863 (ite $x442384 (_ bv576460752303354975 64) ?x440031)))
 (let ((?x443148 ((_ extract 3183 3176) mem_7fffffffffef42d_194_3576)))
 (let (($x439410 (= (_ bv0 8) ?x443148)))
 (let ((?x442935 (ite $x439410 (_ bv576460752303354974 64) ?x440863)))
 (let ((?x440882 ((_ extract 3191 3184) mem_7fffffffffef42d_194_3576)))
 (let (($x440775 (= (_ bv0 8) ?x440882)))
 (let ((?x443015 (ite $x440775 (_ bv576460752303354973 64) ?x442935)))
 (let ((?x443054 ((_ extract 3199 3192) mem_7fffffffffef42d_194_3576)))
 (let (($x440928 (= (_ bv0 8) ?x443054)))
 (let ((?x440745 (ite $x440928 (_ bv576460752303354972 64) ?x443015)))
 (let ((?x275508 ((_ extract 3207 3200) mem_7fffffffffef42d_194_3576)))
 (let (($x443085 (= (_ bv0 8) ?x275508)))
 (let ((?x275313 (ite $x443085 (_ bv576460752303354971 64) ?x440745)))
 (let ((?x440318 ((_ extract 3215 3208) mem_7fffffffffef42d_194_3576)))
 (let (($x443090 (= (_ bv0 8) ?x440318)))
 (let ((?x440940 (ite $x443090 (_ bv576460752303354970 64) ?x275313)))
 (let ((?x440799 ((_ extract 3223 3216) mem_7fffffffffef42d_194_3576)))
 (let (($x443110 (= (_ bv0 8) ?x440799)))
 (let ((?x440960 (ite $x443110 (_ bv576460752303354969 64) ?x440940)))
 (let ((?x440155 ((_ extract 3231 3224) mem_7fffffffffef42d_194_3576)))
 (let (($x443176 (= (_ bv0 8) ?x440155)))
 (let ((?x443136 (ite $x443176 (_ bv576460752303354968 64) ?x440960)))
 (let ((?x439525 ((_ extract 3239 3232) mem_7fffffffffef42d_194_3576)))
 (let (($x440938 (= (_ bv0 8) ?x439525)))
 (let ((?x443010 (ite $x440938 (_ bv576460752303354967 64) ?x443136)))
 (let ((?x276494 ((_ extract 3247 3240) mem_7fffffffffef42d_194_3576)))
 (let (($x439542 (= (_ bv0 8) ?x276494)))
 (let ((?x440659 (ite $x439542 (_ bv576460752303354966 64) ?x443010)))
 (let ((?x438531 ((_ extract 3255 3248) mem_7fffffffffef42d_194_3576)))
 (let (($x443045 (= (_ bv0 8) ?x438531)))
 (let ((?x443005 (ite $x443045 (_ bv576460752303354965 64) ?x440659)))
 (let ((?x438464 ((_ extract 3263 3256) mem_7fffffffffef42d_194_3576)))
 (let (($x439420 (= (_ bv0 8) ?x438464)))
 (let ((?x440737 (ite $x439420 (_ bv576460752303354964 64) ?x443005)))
 (let ((?x441324 ((_ extract 3271 3264) mem_7fffffffffef42d_194_3576)))
 (let (($x275090 (= (_ bv0 8) ?x441324)))
 (let ((?x443163 (ite $x275090 (_ bv576460752303354963 64) ?x440737)))
 (let ((?x440878 ((_ extract 3279 3272) mem_7fffffffffef42d_194_3576)))
 (let (($x440117 (= (_ bv0 8) ?x440878)))
 (let ((?x440873 (ite $x440117 (_ bv576460752303354962 64) ?x443163)))
 (let ((?x442938 ((_ extract 3287 3280) mem_7fffffffffef42d_194_3576)))
 (let (($x443024 (= (_ bv0 8) ?x442938)))
 (let ((?x439430 (ite $x443024 (_ bv576460752303354961 64) ?x440873)))
 (let ((?x439545 ((_ extract 3295 3288) mem_7fffffffffef42d_194_3576)))
 (let (($x439754 (= (_ bv0 8) ?x439545)))
 (let ((?x440798 (ite $x439754 (_ bv576460752303354960 64) ?x439430)))
 (let ((?x278372 ((_ extract 3303 3296) mem_7fffffffffef42d_194_3576)))
 (let (($x443171 (= (_ bv0 8) ?x278372)))
 (let ((?x440854 (ite $x443171 (_ bv576460752303354959 64) ?x440798)))
 (let ((?x443059 ((_ extract 3311 3304) mem_7fffffffffef42d_194_3576)))
 (let (($x442981 (= (_ bv0 8) ?x443059)))
 (let ((?x443133 (ite $x442981 (_ bv576460752303354958 64) ?x440854)))
 (let ((?x443008 ((_ extract 3319 3312) mem_7fffffffffef42d_194_3576)))
 (let (($x441225 (= (_ bv0 8) ?x443008)))
 (let ((?x440947 (ite $x441225 (_ bv576460752303354957 64) ?x443133)))
 (let ((?x440747 ((_ extract 3327 3320) mem_7fffffffffef42d_194_3576)))
 (let (($x443044 (= (_ bv0 8) ?x440747)))
 (let ((?x440514 (ite $x443044 (_ bv576460752303354956 64) ?x440947)))
 (let ((?x443003 ((_ extract 3335 3328) mem_7fffffffffef42d_194_3576)))
 (let (($x443000 (= (_ bv0 8) ?x443003)))
 (let ((?x442970 (ite $x443000 (_ bv576460752303354955 64) ?x440514)))
 (let ((?x443175 ((_ extract 3343 3336) mem_7fffffffffef42d_194_3576)))
 (let (($x443066 (= (_ bv0 8) ?x443175)))
 (let ((?x439595 (ite $x443066 (_ bv576460752303354954 64) ?x442970)))
 (let ((?x440055 ((_ extract 3351 3344) mem_7fffffffffef42d_194_3576)))
 (let (($x441303 (= (_ bv0 8) ?x440055)))
 (let ((?x440159 (ite $x441303 (_ bv576460752303354953 64) ?x439595)))
 (let ((?x276183 ((_ extract 3359 3352) mem_7fffffffffef42d_194_3576)))
 (let (($x390772 (= (_ bv0 8) ?x276183)))
 (let ((?x440951 (ite $x390772 (_ bv576460752303354952 64) ?x440159)))
 (let ((?x438369 ((_ extract 3367 3360) mem_7fffffffffef42d_194_3576)))
 (let (($x439664 (= (_ bv0 8) ?x438369)))
 (let ((?x441224 (ite $x439664 (_ bv576460752303354951 64) ?x440951)))
 (let ((?x442987 ((_ extract 3375 3368) mem_7fffffffffef42d_194_3576)))
 (let (($x443165 (= (_ bv0 8) ?x442987)))
 (let ((?x440511 (ite $x443165 (_ bv576460752303354950 64) ?x441224)))
 (let ((?x440906 ((_ extract 3383 3376) mem_7fffffffffef42d_194_3576)))
 (let (($x390784 (= (_ bv0 8) ?x440906)))
 (let ((?x440757 (ite $x390784 (_ bv576460752303354949 64) ?x440511)))
 (let ((?x440805 ((_ extract 3391 3384) mem_7fffffffffef42d_194_3576)))
 (let (($x443075 (= (_ bv0 8) ?x440805)))
 (let ((?x443088 (ite $x443075 (_ bv576460752303354948 64) ?x440757)))
 (let ((?x438762 ((_ extract 3399 3392) mem_7fffffffffef42d_194_3576)))
 (let (($x440868 (= (_ bv0 8) ?x438762)))
 (let ((?x439988 (ite $x440868 (_ bv576460752303354947 64) ?x443088)))
 (let ((?x443122 ((_ extract 3407 3400) mem_7fffffffffef42d_194_3576)))
 (let (($x440935 (= (_ bv0 8) ?x443122)))
 (let ((?x443095 (ite $x440935 (_ bv576460752303354946 64) ?x439988)))
 (let ((?x441345 ((_ extract 3415 3408) mem_7fffffffffef42d_194_3576)))
 (let (($x443138 (= (_ bv0 8) ?x441345)))
 (let ((?x439199 (ite $x443138 (_ bv576460752303354945 64) ?x443095)))
 (let ((?x439760 ((_ extract 3423 3416) mem_7fffffffffef42d_194_3576)))
 (let (($x443168 (= (_ bv0 8) ?x439760)))
 (let ((?x440860 (ite $x443168 (_ bv576460752303354944 64) ?x439199)))
 (let ((?x439927 ((_ extract 3431 3424) mem_7fffffffffef42d_194_3576)))
 (let (($x438938 (= (_ bv0 8) ?x439927)))
 (let ((?x120632 (ite $x438938 (_ bv576460752303354943 64) ?x440860)))
 (let ((?x440755 ((_ extract 3439 3432) mem_7fffffffffef42d_194_3576)))
 (let (($x276654 (= (_ bv0 8) ?x440755)))
 (let ((?x440925 (ite $x276654 (_ bv576460752303354942 64) ?x120632)))
 (let ((?x439914 ((_ extract 3447 3440) mem_7fffffffffef42d_194_3576)))
 (let (($x442982 (= (_ bv0 8) ?x439914)))
 (let ((?x443051 (ite $x442982 (_ bv576460752303354941 64) ?x440925)))
 (let ((?x443111 ((_ extract 3455 3448) mem_7fffffffffef42d_194_3576)))
 (let (($x440103 (= (_ bv0 8) ?x443111)))
 (let ((?x439517 (ite $x440103 (_ bv576460752303354940 64) ?x443051)))
 (let ((?x443109 ((_ extract 3463 3456) mem_7fffffffffef42d_194_3576)))
 (let (($x439594 (= (_ bv0 8) ?x443109)))
 (let ((?x440191 (ite $x439594 (_ bv576460752303354939 64) ?x439517)))
 (let ((?x443121 ((_ extract 3471 3464) mem_7fffffffffef42d_194_3576)))
 (let (($x438744 (= (_ bv0 8) ?x443121)))
 (let ((?x443042 (ite $x438744 (_ bv576460752303354938 64) ?x440191)))
 (let ((?x443159 ((_ extract 3479 3472) mem_7fffffffffef42d_194_3576)))
 (let (($x443096 (= (_ bv0 8) ?x443159)))
 (let ((?x439888 (ite $x443096 (_ bv576460752303354937 64) ?x443042)))
 (let ((?x440851 ((_ extract 3487 3480) mem_7fffffffffef42d_194_3576)))
 (let (($x443164 (= (_ bv0 8) ?x440851)))
 (let ((?x439953 (ite $x443164 (_ bv576460752303354936 64) ?x439888)))
 (let ((?x439847 ((_ extract 3495 3488) mem_7fffffffffef42d_194_3576)))
 (let (($x443036 (= (_ bv0 8) ?x439847)))
 (let ((?x442975 (ite $x443036 (_ bv576460752303354935 64) ?x439953)))
 (let ((?x443131 ((_ extract 3503 3496) mem_7fffffffffef42d_194_3576)))
 (let (($x440153 (= (_ bv0 8) ?x443131)))
 (let ((?x440807 (ite $x440153 (_ bv576460752303354934 64) ?x442975)))
 (let ((?x440897 ((_ extract 3511 3504) mem_7fffffffffef42d_194_3576)))
 (let (($x440073 (= (_ bv0 8) ?x440897)))
 (let ((?x443169 (ite $x440073 (_ bv576460752303354933 64) ?x440807)))
 (let ((?x438538 ((_ extract 3519 3512) mem_7fffffffffef42d_194_3576)))
 (let (($x441264 (= (_ bv0 8) ?x438538)))
 (let ((?x440892 (ite $x441264 (_ bv576460752303354932 64) ?x443169)))
 (let ((?x440565 ((_ extract 3527 3520) mem_7fffffffffef42d_194_3576)))
 (let (($x119693 (= (_ bv0 8) ?x440565)))
 (let ((?x440699 (ite $x119693 (_ bv576460752303354931 64) ?x440892)))
 (let ((?x140037 ((_ extract 3535 3528) mem_7fffffffffef42d_194_3576)))
 (let (($x119570 (= (_ bv0 8) ?x140037)))
 (let ((?x439432 (ite $x119570 (_ bv576460752303354930 64) ?x440699)))
 (let ((?x141088 ((_ extract 3543 3536) mem_7fffffffffef42d_194_3576)))
 (let (($x116088 (= (_ bv0 8) ?x141088)))
 (let ((?x442957 (ite $x116088 (_ bv576460752303354929 64) ?x439432)))
 (let ((?x147924 ((_ extract 3551 3544) mem_7fffffffffef42d_194_3576)))
 (let (($x117058 (= (_ bv0 8) ?x147924)))
 (let ((?x277349 (ite $x117058 (_ bv576460752303354928 64) ?x442957)))
 (let ((?x158154 ((_ extract 3559 3552) mem_7fffffffffef42d_194_3576)))
 (let (($x116975 (= (_ bv0 8) ?x158154)))
 (let ((?x443072 (ite $x116975 (_ bv576460752303354927 64) ?x277349)))
 (let ((?x138850 ((_ extract 3567 3560) mem_7fffffffffef42d_194_3576)))
 (let (($x277435 (= (_ bv0 8) ?x138850)))
 (let ((?x119427 (ite $x277435 (_ bv576460752303354926 64) ?x443072)))
 (let ((?x138645 ((_ extract 3575 3568) mem_7fffffffffef42d_194_3576)))
 (let (($x276886 (= (_ bv0 8) ?x138645)))
 (let ((?x443106 (ite $x276886 (_ bv576460752303354925 64) ?x119427)))
 (let (($x440165 (= (_ bv0 8) mem_7fffffffffef42c_177_8)))
 (let ((?x440901 (ite $x440165 (_ bv576460752303354924 64) ?x443106)))
 (let ((?x120542 ((_ extract 31 24) mem_7fffffffffef428_172_32)))
 (let (($x443129 (= (_ bv0 8) ?x120542)))
 (let ((?x443104 (ite $x443129 (_ bv576460752303354923 64) ?x440901)))
 (let ((?x120557 ((_ extract 23 16) mem_7fffffffffef428_172_32)))
 (let (($x439918 (= (_ bv0 8) ?x120557)))
 (let ((?x440468 (ite $x439918 (_ bv576460752303354922 64) ?x443104)))
 (let ((?x120521 ((_ extract 15 8) mem_7fffffffffef428_172_32)))
 (let (($x443118 (= (_ bv0 8) ?x120521)))
 (let ((?x441323 (ite $x443118 (_ bv576460752303354921 64) ?x440468)))
 (let ((?x120527 ((_ extract 7 0) mem_7fffffffffef428_172_32)))
 (let (($x440825 (= (_ bv0 8) ?x120527)))
 (let ((?x440826 (ite $x440825 (_ bv576460752303354920 64) ?x441323)))
 (let ((?x119659 ((_ extract 63 56) mem_7fffffffffef420_168_64)))
 (let (($x441241 (= (_ bv0 8) ?x119659)))
 (let ((?x120630 (ite $x441241 (_ bv576460752303354919 64) ?x440826)))
 (let ((?x113788 ((_ extract 55 48) mem_7fffffffffef420_168_64)))
 (let (($x441239 (= (_ bv0 8) ?x113788)))
 (let ((?x440958 (ite $x441239 (_ bv576460752303354918 64) ?x120630)))
 (let ((?x68316 ((_ extract 47 40) mem_7fffffffffef420_168_64)))
 (let (($x441237 (= (_ bv0 8) ?x68316)))
 (let ((?x443120 (ite $x441237 (_ bv576460752303354917 64) ?x440958)))
 (= ?x443120 ?x115683))))))))))))))))))))))))))))))))))))))))))))))))))))))))))))))))))))))))))))))))))))))))))))))))))))))))))))))))))))))))))))))))))))))))))))))))))))))))))))))))))))))))))))))))))))))
(assert
 (let ((?x46334 ((_ extract 7 0) mem_7fffffffffef420_168_64)))
 (= (_ bv47 8) ?x46334)))
(assert
 (let ((?x448109 ((_ extract 5 0) strlen_981_64)))
 (let ((?x448139 (bvadd (_ bv1 6) ?x448109)))
 (let (($x447546 (bvule (_ bv31 64) strlen_981_64)))
 (let (($x447700 (bvule strlen_981_64 (_ bv18446744073709551614 64))))
 (let (($x448189 (and $x447700 $x447546)))
 (let ((?x448013 (ite $x448189 (_ bv32 6) ?x448139)))
 (bvule ?x448013 (_ bv32 6)))))))))
(assert
 (let ((?x447697 (bvadd (_ bv1 64) strlen_981_64)))
 (let (($x447546 (bvule (_ bv31 64) strlen_981_64)))
 (let (($x447700 (bvule strlen_981_64 (_ bv18446744073709551614 64))))
 (let (($x448189 (and $x447700 $x447546)))
 (let ((?x448230 (ite $x448189 (_ bv32 64) ?x447697)))
 (bvule (_ bv1 64) ?x448230)))))))
(assert
 (let ((?x119659 ((_ extract 63 56) mem_7fffffffffef420_168_64)))
 (let (($x441241 (= (_ bv0 8) ?x119659)))
 (let ((?x113788 ((_ extract 55 48) mem_7fffffffffef420_168_64)))
 (let (($x441239 (= (_ bv0 8) ?x113788)))
 (let ((?x68316 ((_ extract 47 40) mem_7fffffffffef420_168_64)))
 (let (($x441237 (= (_ bv0 8) ?x68316)))
 (let ((?x440318 ((_ extract 3215 3208) mem_7fffffffffef42d_194_3576)))
 (let (($x443090 (= (_ bv0 8) ?x440318)))
 (let ((?x440933 ((_ extract 3175 3168) mem_7fffffffffef42d_194_3576)))
 (let (($x442384 (= (_ bv0 8) ?x440933)))
 (let ((?x138645 ((_ extract 3575 3568) mem_7fffffffffef42d_194_3576)))
 (let (($x276886 (= (_ bv0 8) ?x138645)))
 (let ((?x140037 ((_ extract 3535 3528) mem_7fffffffffef42d_194_3576)))
 (let (($x119570 (= (_ bv0 8) ?x140037)))
 (let ((?x439525 ((_ extract 3239 3232) mem_7fffffffffef42d_194_3576)))
 (let (($x440938 (= (_ bv0 8) ?x439525)))
 (let ((?x443148 ((_ extract 3183 3176) mem_7fffffffffef42d_194_3576)))
 (let (($x439410 (= (_ bv0 8) ?x443148)))
 (let ((?x438531 ((_ extract 3255 3248) mem_7fffffffffef42d_194_3576)))
 (let (($x443045 (= (_ bv0 8) ?x438531)))
 (let ((?x120521 ((_ extract 15 8) mem_7fffffffffef428_172_32)))
 (let (($x443118 (= (_ bv0 8) ?x120521)))
 (let ((?x439927 ((_ extract 3431 3424) mem_7fffffffffef42d_194_3576)))
 (let (($x438938 (= (_ bv0 8) ?x439927)))
 (let ((?x440878 ((_ extract 3279 3272) mem_7fffffffffef42d_194_3576)))
 (let (($x440117 (= (_ bv0 8) ?x440878)))
 (let ((?x440897 ((_ extract 3511 3504) mem_7fffffffffef42d_194_3576)))
 (let (($x440073 (= (_ bv0 8) ?x440897)))
 (let ((?x275508 ((_ extract 3207 3200) mem_7fffffffffef42d_194_3576)))
 (let (($x443085 (= (_ bv0 8) ?x275508)))
 (let ((?x158154 ((_ extract 3559 3552) mem_7fffffffffef42d_194_3576)))
 (let (($x116975 (= (_ bv0 8) ?x158154)))
 (let ((?x440805 ((_ extract 3391 3384) mem_7fffffffffef42d_194_3576)))
 (let (($x443075 (= (_ bv0 8) ?x440805)))
 (let ((?x441345 ((_ extract 3415 3408) mem_7fffffffffef42d_194_3576)))
 (let (($x443138 (= (_ bv0 8) ?x441345)))
 (let ((?x440155 ((_ extract 3231 3224) mem_7fffffffffef42d_194_3576)))
 (let (($x443176 (= (_ bv0 8) ?x440155)))
 (let ((?x443122 ((_ extract 3407 3400) mem_7fffffffffef42d_194_3576)))
 (let (($x440935 (= (_ bv0 8) ?x443122)))
 (let ((?x439545 ((_ extract 3295 3288) mem_7fffffffffef42d_194_3576)))
 (let (($x439754 (= (_ bv0 8) ?x439545)))
 (let ((?x440755 ((_ extract 3439 3432) mem_7fffffffffef42d_194_3576)))
 (let (($x276654 (= (_ bv0 8) ?x440755)))
 (let (($x440165 (= (_ bv0 8) mem_7fffffffffef42c_177_8)))
 (let ((?x443003 ((_ extract 3335 3328) mem_7fffffffffef42d_194_3576)))
 (let (($x443000 (= (_ bv0 8) ?x443003)))
 (let ((?x278372 ((_ extract 3303 3296) mem_7fffffffffef42d_194_3576)))
 (let (($x443171 (= (_ bv0 8) ?x278372)))
 (let ((?x443059 ((_ extract 3311 3304) mem_7fffffffffef42d_194_3576)))
 (let (($x442981 (= (_ bv0 8) ?x443059)))
 (let ((?x443111 ((_ extract 3455 3448) mem_7fffffffffef42d_194_3576)))
 (let (($x440103 (= (_ bv0 8) ?x443111)))
 (let ((?x443054 ((_ extract 3199 3192) mem_7fffffffffef42d_194_3576)))
 (let (($x440928 (= (_ bv0 8) ?x443054)))
 (let ((?x120542 ((_ extract 31 24) mem_7fffffffffef428_172_32)))
 (let (($x443129 (= (_ bv0 8) ?x120542)))
 (let ((?x440799 ((_ extract 3223 3216) mem_7fffffffffef42d_194_3576)))
 (let (($x443110 (= (_ bv0 8) ?x440799)))
 (let ((?x438369 ((_ extract 3367 3360) mem_7fffffffffef42d_194_3576)))
 (let (($x439664 (= (_ bv0 8) ?x438369)))
 (let ((?x440906 ((_ extract 3383 3376) mem_7fffffffffef42d_194_3576)))
 (let (($x390784 (= (_ bv0 8) ?x440906)))
 (let ((?x443131 ((_ extract 3503 3496) mem_7fffffffffef42d_194_3576)))
 (let (($x440153 (= (_ bv0 8) ?x443131)))
 (let ((?x442987 ((_ extract 3375 3368) mem_7fffffffffef42d_194_3576)))
 (let (($x443165 (= (_ bv0 8) ?x442987)))
 (let ((?x138850 ((_ extract 3567 3560) mem_7fffffffffef42d_194_3576)))
 (let (($x277435 (= (_ bv0 8) ?x138850)))
 (let ((?x440747 ((_ extract 3327 3320) mem_7fffffffffef42d_194_3576)))
 (let (($x443044 (= (_ bv0 8) ?x440747)))
 (let ((?x439760 ((_ extract 3423 3416) mem_7fffffffffef42d_194_3576)))
 (let (($x443168 (= (_ bv0 8) ?x439760)))
 (let ((?x443121 ((_ extract 3471 3464) mem_7fffffffffef42d_194_3576)))
 (let (($x438744 (= (_ bv0 8) ?x443121)))
 (let ((?x439847 ((_ extract 3495 3488) mem_7fffffffffef42d_194_3576)))
 (let (($x443036 (= (_ bv0 8) ?x439847)))
 (let ((?x439914 ((_ extract 3447 3440) mem_7fffffffffef42d_194_3576)))
 (let (($x442982 (= (_ bv0 8) ?x439914)))
 (let ((?x441324 ((_ extract 3271 3264) mem_7fffffffffef42d_194_3576)))
 (let (($x275090 (= (_ bv0 8) ?x441324)))
 (let ((?x141088 ((_ extract 3543 3536) mem_7fffffffffef42d_194_3576)))
 (let (($x116088 (= (_ bv0 8) ?x141088)))
 (let ((?x438762 ((_ extract 3399 3392) mem_7fffffffffef42d_194_3576)))
 (let (($x440868 (= (_ bv0 8) ?x438762)))
 (let ((?x443043 ((_ extract 3167 3160) mem_7fffffffffef42d_194_3576)))
 (let (($x439720 (= (_ bv0 8) ?x443043)))
 (let ((?x440851 ((_ extract 3487 3480) mem_7fffffffffef42d_194_3576)))
 (let (($x443164 (= (_ bv0 8) ?x440851)))
 (let ((?x443109 ((_ extract 3463 3456) mem_7fffffffffef42d_194_3576)))
 (let (($x439594 (= (_ bv0 8) ?x443109)))
 (let ((?x120557 ((_ extract 23 16) mem_7fffffffffef428_172_32)))
 (let (($x439918 (= (_ bv0 8) ?x120557)))
 (let ((?x440882 ((_ extract 3191 3184) mem_7fffffffffef42d_194_3576)))
 (let (($x440775 (= (_ bv0 8) ?x440882)))
 (let ((?x443175 ((_ extract 3343 3336) mem_7fffffffffef42d_194_3576)))
 (let (($x443066 (= (_ bv0 8) ?x443175)))
 (let ((?x440055 ((_ extract 3351 3344) mem_7fffffffffef42d_194_3576)))
 (let (($x441303 (= (_ bv0 8) ?x440055)))
 (let ((?x438464 ((_ extract 3263 3256) mem_7fffffffffef42d_194_3576)))
 (let (($x439420 (= (_ bv0 8) ?x438464)))
 (let ((?x443008 ((_ extract 3319 3312) mem_7fffffffffef42d_194_3576)))
 (let (($x441225 (= (_ bv0 8) ?x443008)))
 (let ((?x276494 ((_ extract 3247 3240) mem_7fffffffffef42d_194_3576)))
 (let (($x439542 (= (_ bv0 8) ?x276494)))
 (let ((?x438538 ((_ extract 3519 3512) mem_7fffffffffef42d_194_3576)))
 (let (($x441264 (= (_ bv0 8) ?x438538)))
 (let ((?x442938 ((_ extract 3287 3280) mem_7fffffffffef42d_194_3576)))
 (let (($x443024 (= (_ bv0 8) ?x442938)))
 (let ((?x276183 ((_ extract 3359 3352) mem_7fffffffffef42d_194_3576)))
 (let (($x390772 (= (_ bv0 8) ?x276183)))
 (let ((?x147924 ((_ extract 3551 3544) mem_7fffffffffef42d_194_3576)))
 (let (($x117058 (= (_ bv0 8) ?x147924)))
 (let ((?x443159 ((_ extract 3479 3472) mem_7fffffffffef42d_194_3576)))
 (let (($x443096 (= (_ bv0 8) ?x443159)))
 (let ((?x440565 ((_ extract 3527 3520) mem_7fffffffffef42d_194_3576)))
 (let (($x119693 (= (_ bv0 8) ?x440565)))
 (let ((?x120527 ((_ extract 7 0) mem_7fffffffffef428_172_32)))
 (let (($x440825 (= (_ bv0 8) ?x120527)))
 (or $x440825 $x119693 $x443096 $x117058 $x390772 $x443024 $x441264 $x439542 $x441225 $x439420 $x441303 $x443066 $x440775 $x439918 $x439594 $x443164 $x439720 $x440868 $x116088 $x275090 $x442982 $x443036 $x438744 $x443168 $x443044 $x277435 $x443165 $x440153 $x390784 $x439664 $x443110 $x443129 $x440928 $x440103 $x442981 $x443171 $x443000 $x440165 $x276654 $x439754 $x440935 $x443176 $x443138 $x443075 $x116975 $x443085 $x440073 $x440117 $x438938 $x443118 $x443045 $x439410 $x440938 $x119570 $x276886 $x442384 $x443090 $x441237 $x441239 $x441241)))))))))))))))))))))))))))))))))))))))))))))))))))))))))))))))))))))))))))))))))))))))))))))))))))))))))))))))))))))))))
(assert
 (let (($x447546 (bvule (_ bv31 64) strlen_981_64)))
 (let (($x447714 (not $x447546)))
 (let (($x447700 (bvule strlen_981_64 (_ bv18446744073709551614 64))))
 (let (($x447707 (not $x447700)))
 (let (($x447715 (or $x447707 $x447714)))
 (let (($x448097 (not $x447715)))
 (let ((?x447697 (bvadd (_ bv1 64) strlen_981_64)))
 (let ((?x448107 ((_ extract 63 6) ?x447697)))
 (let (($x450893 (= (_ bv0 58) ?x448107)))
 (or $x450893 $x448097)))))))))))
(assert
 (let ((?x116306 ((_ extract 31 0) syscall_stub_newfstatat_218_64)))
 (bvule ?x116306 (_ bv4294963200 32))))
(assert
 (= mem_7fffffffffeefa8_295_64 mem_7fffffffffef038_289_64))
(assert
 (= mem_7fffffffffef030_340_64 mem_7fffffffffeefa0_343_64))
(assert
 (let ((?x274946 ((_ extract 15 12) mem_7fffffffffef048_388_32)))
 (= (_ bv2 4) ?x274946)))
(assert
 (= mem_7fffffffffef058_415_64 mem_7fffffffffeefc8_425_64))
(assert
 (= (_ bv4294967295 32) access_2273_32))
(assert
 (= (_ bv0 32) access_3254_32))
(assert
 (let ((?x1289515 (bvadd (_ bv44 64) strlen_5285_64)))
 (let ((?x1288911 ((_ extract 15 8) mem_2c_5284_264)))
 (let (($x1289439 (= (_ bv0 8) ?x1288911)))
 (let ((?x1289440 (ite $x1289439 (_ bv75 64) (_ bv0 64))))
 (let ((?x1288910 ((_ extract 23 16) mem_2c_5284_264)))
 (let (($x1289438 (= (_ bv0 8) ?x1288910)))
 (let ((?x1289441 (ite $x1289438 (_ bv74 64) ?x1289440)))
 (let ((?x1288909 ((_ extract 31 24) mem_2c_5284_264)))
 (let (($x1289437 (= (_ bv0 8) ?x1288909)))
 (let ((?x1288913 (ite $x1289437 (_ bv73 64) ?x1289441)))
 (let ((?x1288908 ((_ extract 39 32) mem_2c_5284_264)))
 (let (($x1289436 (= (_ bv0 8) ?x1288908)))
 (let ((?x1289442 (ite $x1289436 (_ bv72 64) ?x1288913)))
 (let ((?x1288907 ((_ extract 47 40) mem_2c_5284_264)))
 (let (($x1289435 (= (_ bv0 8) ?x1288907)))
 (let ((?x1288914 (ite $x1289435 (_ bv71 64) ?x1289442)))
 (let ((?x1289434 ((_ extract 55 48) mem_2c_5284_264)))
 (let (($x1289433 (= (_ bv0 8) ?x1289434)))
 (let ((?x1289443 (ite $x1289433 (_ bv70 64) ?x1288914)))
 (let ((?x1288904 ((_ extract 63 56) mem_2c_5284_264)))
 (let (($x1289432 (= (_ bv0 8) ?x1288904)))
 (let ((?x1289444 (ite $x1289432 (_ bv69 64) ?x1289443)))
 (let ((?x1288903 ((_ extract 71 64) mem_2c_5284_264)))
 (let (($x1289431 (= (_ bv0 8) ?x1288903)))
 (let ((?x1289445 (ite $x1289431 (_ bv68 64) ?x1289444)))
 (let ((?x1288902 ((_ extract 79 72) mem_2c_5284_264)))
 (let (($x1289430 (= (_ bv0 8) ?x1288902)))
 (let ((?x1288917 (ite $x1289430 (_ bv67 64) ?x1289445)))
 (let ((?x1288901 ((_ extract 87 80) mem_2c_5284_264)))
 (let (($x1289429 (= (_ bv0 8) ?x1288901)))
 (let ((?x1289446 (ite $x1289429 (_ bv66 64) ?x1288917)))
 (let ((?x1288900 ((_ extract 95 88) mem_2c_5284_264)))
 (let (($x1289428 (= (_ bv0 8) ?x1288900)))
 (let ((?x1288918 (ite $x1289428 (_ bv65 64) ?x1289446)))
 (let ((?x1288899 ((_ extract 103 96) mem_2c_5284_264)))
 (let (($x1289427 (= (_ bv0 8) ?x1288899)))
 (let ((?x1289447 (ite $x1289427 (_ bv64 64) ?x1288918)))
 (let ((?x1288898 ((_ extract 111 104) mem_2c_5284_264)))
 (let (($x1289426 (= (_ bv0 8) ?x1288898)))
 (let ((?x1288919 (ite $x1289426 (_ bv63 64) ?x1289447)))
 (let ((?x1288897 ((_ extract 119 112) mem_2c_5284_264)))
 (let (($x1289425 (= (_ bv0 8) ?x1288897)))
 (let ((?x1289448 (ite $x1289425 (_ bv62 64) ?x1288919)))
 (let ((?x1289424 ((_ extract 127 120) mem_2c_5284_264)))
 (let (($x1289423 (= (_ bv0 8) ?x1289424)))
 (let ((?x1288920 (ite $x1289423 (_ bv61 64) ?x1289448)))
 (let ((?x1288894 ((_ extract 135 128) mem_2c_5284_264)))
 (let (($x1289422 (= (_ bv0 8) ?x1288894)))
 (let ((?x1289449 (ite $x1289422 (_ bv60 64) ?x1288920)))
 (let ((?x1288893 ((_ extract 143 136) mem_2c_5284_264)))
 (let (($x1289421 (= (_ bv0 8) ?x1288893)))
 (let ((?x1288921 (ite $x1289421 (_ bv59 64) ?x1289449)))
 (let ((?x1288892 ((_ extract 151 144) mem_2c_5284_264)))
 (let (($x1289420 (= (_ bv0 8) ?x1288892)))
 (let ((?x1289450 (ite $x1289420 (_ bv58 64) ?x1288921)))
 (let ((?x1288891 ((_ extract 159 152) mem_2c_5284_264)))
 (let (($x1289419 (= (_ bv0 8) ?x1288891)))
 (let ((?x1288922 (ite $x1289419 (_ bv57 64) ?x1289450)))
 (let ((?x1288890 ((_ extract 167 160) mem_2c_5284_264)))
 (let (($x1289418 (= (_ bv0 8) ?x1288890)))
 (let ((?x1289451 (ite $x1289418 (_ bv56 64) ?x1288922)))
 (let ((?x1288889 ((_ extract 175 168) mem_2c_5284_264)))
 (let (($x1289417 (= (_ bv0 8) ?x1288889)))
 (let ((?x1288923 (ite $x1289417 (_ bv55 64) ?x1289451)))
 (let ((?x1288888 ((_ extract 183 176) mem_2c_5284_264)))
 (let (($x1289416 (= (_ bv0 8) ?x1288888)))
 (let ((?x1289452 (ite $x1289416 (_ bv54 64) ?x1288923)))
 (let ((?x1288887 ((_ extract 191 184) mem_2c_5284_264)))
 (let (($x1289415 (= (_ bv0 8) ?x1288887)))
 (let ((?x1288924 (ite $x1289415 (_ bv53 64) ?x1289452)))
 (let ((?x1289414 ((_ extract 199 192) mem_2c_5284_264)))
 (let (($x1289413 (= (_ bv0 8) ?x1289414)))
 (let ((?x1289453 (ite $x1289413 (_ bv52 64) ?x1288924)))
 (let ((?x1288884 ((_ extract 207 200) mem_2c_5284_264)))
 (let (($x1289412 (= (_ bv0 8) ?x1288884)))
 (let ((?x1289454 (ite $x1289412 (_ bv51 64) ?x1289453)))
 (let ((?x1288883 ((_ extract 215 208) mem_2c_5284_264)))
 (let (($x1289411 (= (_ bv0 8) ?x1288883)))
 (let ((?x1289455 (ite $x1289411 (_ bv50 64) ?x1289454)))
 (let ((?x1288882 ((_ extract 223 216) mem_2c_5284_264)))
 (let (($x1289410 (= (_ bv0 8) ?x1288882)))
 (let ((?x1288927 (ite $x1289410 (_ bv49 64) ?x1289455)))
 (let ((?x1288881 ((_ extract 231 224) mem_2c_5284_264)))
 (let (($x1289409 (= (_ bv0 8) ?x1288881)))
 (let ((?x1289456 (ite $x1289409 (_ bv48 64) ?x1288927)))
 (let ((?x1288880 ((_ extract 239 232) mem_2c_5284_264)))
 (let (($x1289408 (= (_ bv0 8) ?x1288880)))
 (let ((?x1288928 (ite $x1289408 (_ bv47 64) ?x1289456)))
 (let ((?x1288879 ((_ extract 247 240) mem_2c_5284_264)))
 (let (($x1289407 (= (_ bv0 8) ?x1288879)))
 (let ((?x1289457 (ite $x1289407 (_ bv46 64) ?x1288928)))
 (let ((?x1288878 ((_ extract 255 248) mem_2c_5284_264)))
 (let (($x1289406 (= (_ bv0 8) ?x1288878)))
 (let ((?x1288929 (ite $x1289406 (_ bv45 64) ?x1289457)))
 (let ((?x1289405 ((_ extract 263 256) mem_2c_5284_264)))
 (let (($x1288877 (= (_ bv0 8) ?x1289405)))
 (let ((?x1289458 (ite $x1288877 (_ bv44 64) ?x1288929)))
 (= ?x1289458 ?x1289515)))))))))))))))))))))))))))))))))))))))))))))))))))))))))))))))))))))))))))))))))))))))))))))))))))
(assert
 (let ((?x1295028 ((_ extract 63 5) strlen_5285_64)))
 (= (_ bv0 59) ?x1295028)))
(minimize strlen_981_64)
(minimize mem_7fffffffffef42d_194_3576)
(maximize mem_7fffffffffef058_415_64)
(minimize mem_7fffffffffef058_415_64)
(maximize access_3254_32)
(maximize strlen_981_64)
(minimize syscall_stub_newfstatat_119_64)
(maximize mem_2c_5284_264)
(maximize strncmp_ret_86_32)
(minimize syscall_stub_newfstatat_218_64)
(minimize mem_7fffffffffef420_168_64)
(minimize mem_7fffffffffef42c_177_8)
(minimize syscall_stub_readlink_158_64)
(minimize mem_2c_5284_264)
(maximize mem_7fffffffffeefa8_295_64)
(minimize mem_7fffffffffef048_388_32)
(minimize strlen_85_64)
(check-sat)
(get-objectives)
